p cnf 10 15
-6 2 -8 -9 -7 0
-10 5 -8 1 4 0
-8 -2 4 -10 6 0
5 -8 -3 -2 10 0
10 -3 -7 -1 9 0
2 -3 -8 4 5 0
-10 8 -4 -9 -6 0
-1 -6 8 4 -7 0
10 -7 8 -2 9 0
5 -7 -1 9 3 0
-2 -3 10 -7 -8 0
1 -8 -7 2 5 0
3 10 6 2 5 0
6 -3 5 -10 2 0
2 -10 -5 9 -7 0
